RT is False
Default write of storage_offers_DA.csv just to have a file (but constraint should be inactive)
Reading model...
...model read.
creating competitive generators file...
...competitive generators recorded.
Loading data...
.. day-ahead data read.
Compiling instance...
...instance created.
Creating Offer Mitigation (model will solve as dispatch if TRUE)...
NOTE: storage offers will not be mitigated
...storage offer mitigation file created
Converting model to MPEC...
...converted
NOTE: initial MIP solve with only storage competitive to get feasible solution
Solving...

Welcome to IBM(R) ILOG(R) CPLEX(R) Interactive Optimizer 12.9.0.0
  with Simplex, Mixed Integer & Barrier Optimizers
5725-A06 5725-A29 5724-Y48 5724-Y49 5724-Y54 5724-Y55 5655-Y21
Copyright IBM Corp. 1988, 2019.  All Rights Reserved.

Type 'help' for a list of available commands.
Type 'help' followed by a command name for more
information on commands.

CPLEX> Logfile 'cplex.log' closed.
Logfile 'C:\Users\Luke\Desktop\test919\logs\tmpuqd5g8de.cplex.log' open.
CPLEX> New value for parallel optimization mode: -1
CPLEX> New value for mixed integer optimality gap tolerance: 0.01
CPLEX> New value for integrality tolerance: 1e-09
CPLEX> New value for feasibility tolerance: 0.01
CPLEX> New value for deterministic time limit in ticks: 75000
CPLEX> Problem 'C:\Users\Luke\Desktop\test919\logs\tmp6fexzwdf.pyomo.lp' read.
Read time = 0.20 sec. (14.73 ticks)
CPLEX> Problem name         : C:\Users\Luke\Desktop\test919\logs\tmp6fexzwdf.pyomo.lp
Objective sense      : Maximize
Variables            :   53805  [Nneg: 1,  Box: 22000,  Free: 4464,
                                 Binary: 27340]
Objective nonzeros   :    9062
Linear constraints   :  123205  [Less: 41346,  Greater: 59096,  Equal: 22763]
  Nonzeros           :  291786
  RHS nonzeros       :   67524

Variables            : Min LB: -5000.000        Max UB: 1000000.       
Objective nonzeros   : Min   : 0.1000000        Max   : 2500.000       
Linear constraints   :
  Nonzeros           : Min   : 0.1000000        Max   : 1000000.       
  RHS nonzeros       : Min   : 0.1000000        Max   : 1000000.       
CPLEX> CPXPARAM_Parallel                                -1
CPXPARAM_Simplex_Tolerances_Feasibility          0.01
CPXPARAM_DetTimeLimit                            75000
CPXPARAM_MIP_Tolerances_MIPGap                   0.01
CPXPARAM_MIP_Tolerances_Integrality              1.0000000000000001e-09
Tried aggregator 3 times.
MIP Presolve eliminated 88490 rows and 18840 columns.
MIP Presolve added 3415 rows and 0 columns.
MIP Presolve modified 24906 coefficients.
Aggregator did 13014 substitutions.
Reduced MIP has 25116 rows, 21421 columns, and 71560 nonzeros.
Reduced MIP has 8478 binaries, 0 generals, 0 SOSs, and 0 indicators.
Presolve time = 0.25 sec. (176.53 ticks)
Probing fixed 417 vars, tightened 2880 bounds.
Probing time = 1.53 sec. (914.17 ticks)
Tried aggregator 2 times.
MIP Presolve eliminated 940 rows and 838 columns.
MIP Presolve modified 2246 coefficients.
Aggregator did 34 substitutions.
Reduced MIP has 24142 rows, 20549 columns, and 68740 nonzeros.
Reduced MIP has 8059 binaries, 0 generals, 0 SOSs, and 0 indicators.
Presolve time = 0.09 sec. (70.55 ticks)
Probing time = 0.03 sec. (16.31 ticks)
Clique table members: 6354.
MIP emphasis: balance optimality and feasibility.
MIP search method: dynamic search.
Parallel mode: opportunistic, using up to 24 threads.
Root relaxation solution time = 0.53 sec. (554.54 ticks)

        Nodes                                         Cuts/
   Node  Left     Objective  IInf  Best Integer    Best Bound    ItCnt     Gap

      0     0     3409.8694   692                   3409.8694     6794         
      0     0     3409.8694   665                   Cuts: 576     7111         
      0     0     3409.8694   559                   Cuts: 262     7261         
      0     0     3409.8694   474                   Cuts: 133     7348         
      0     0     3409.8694   451                    Cuts: 91     7414         
      0     0     3409.8694   401                    Cuts: 92     7466         
      0     0     3409.8694   379                    Cuts: 77     7504         
      0     0     3409.8694   361                    Cuts: 54     7530         
      0     0     3409.8694   339                    Cuts: 45     7547         
      0     0     3409.8694   333                    Cuts: 25     7552         
*     0+    0                         3409.8694     3409.8694             0.00%
      0     0        cutoff           3409.8694     3409.8694     7552    0.00%
Elapsed time = 7.91 sec. (5285.33 ticks, tree = 0.01 MB, solutions = 1)

Clique cuts applied:  7
Implied bound cuts applied:  17
Flow cuts applied:  415
Mixed integer rounding cuts applied:  17
Gomory fractional cuts applied:  21

Root node processing (before b&c):
  Real time             =    7.92 sec. (5287.29 ticks)
Parallel b&c, 24 threads:
  Real time             =    0.00 sec. (0.00 ticks)
  Sync time (average)   =    0.00 sec.
  Wait time (average)   =    0.00 sec.
                          ------------
Total (root+branch&cut) =    7.92 sec. (5287.29 ticks)

Solution pool: 1 solution saved.

MIP - Integer optimal solution:  Objective =  3.4098693840e+03
Solution time =    7.94 sec.  Iterations = 7552  Nodes = 0
Deterministic time = 5287.44 ticks  (666.09 ticks/sec)

CPLEX> Incumbent solution written to file 'C:\Users\Luke\Desktop\test919\logs\tmpztfvr91i.cplex.sol'.
CPLEX> NOTE: no warmstart specified for MIP iteration, default behavior is true
NOTE: resolving with all competitive generators using storage-only solution to warmstart
Solving...

Welcome to IBM(R) ILOG(R) CPLEX(R) Interactive Optimizer 12.9.0.0
  with Simplex, Mixed Integer & Barrier Optimizers
5725-A06 5725-A29 5724-Y48 5724-Y49 5724-Y54 5724-Y55 5655-Y21
Copyright IBM Corp. 1988, 2019.  All Rights Reserved.

Type 'help' for a list of available commands.
Type 'help' followed by a command name for more
information on commands.

CPLEX> Logfile 'cplex.log' closed.
Logfile 'C:\Users\Luke\Desktop\test919\logs\tmpxc3aynfd.cplex.log' open.
CPLEX> New value for parallel optimization mode: -1
CPLEX> New value for mixed integer optimality gap tolerance: 0.01
CPLEX> New value for integrality tolerance: 1e-09
CPLEX> New value for feasibility tolerance: 0.01
CPLEX> New value for deterministic time limit in ticks: 75000
CPLEX> Problem 'C:\Users\Luke\Desktop\test919\logs\tmplzaj0zbr.pyomo.lp' read.
Read time = 0.19 sec. (14.75 ticks)
CPLEX> MIP start file 'C:\Users\Luke\Desktop\test919\logs\tmpx1dt9gdp.cplex.mst' read.
CPLEX> Problem name         : C:\Users\Luke\Desktop\test919\logs\tmplzaj0zbr.pyomo.lp
Objective sense      : Maximize
Variables            :   54525  [Nneg: 1,  Box: 22720,  Free: 4464,
                                 Binary: 27340]
Objective nonzeros   :    9782
Linear constraints   :  123205  [Less: 41346,  Greater: 59096,  Equal: 22763]
  Nonzeros           :  291786
  RHS nonzeros       :   67524

Variables            : Min LB: -5000.000        Max UB: 1000000.       
Objective nonzeros   : Min   : 0.1000000        Max   : 2500.000       
Linear constraints   :
  Nonzeros           : Min   : 0.1000000        Max   : 1000000.       
  RHS nonzeros       : Min   : 0.1000000        Max   : 1000000.       
CPLEX> CPXPARAM_Parallel                                -1
CPXPARAM_Simplex_Tolerances_Feasibility          0.01
CPXPARAM_DetTimeLimit                            75000
CPXPARAM_MIP_Tolerances_MIPGap                   0.01
CPXPARAM_MIP_Tolerances_Integrality              1.0000000000000001e-09
Warning:  No solution found from 1 MIP starts.
Retaining values of one MIP start for possible repair.
Tried aggregator 3 times.
MIP Presolve eliminated 88490 rows and 19560 columns.
MIP Presolve added 3415 rows and 0 columns.
MIP Presolve modified 24906 coefficients.
Aggregator did 13014 substitutions.
Reduced MIP has 25116 rows, 21421 columns, and 71560 nonzeros.
Reduced MIP has 8478 binaries, 0 generals, 0 SOSs, and 0 indicators.
Presolve time = 0.23 sec. (176.90 ticks)
Probing fixed 417 vars, tightened 2880 bounds.
Probing time = 1.52 sec. (914.17 ticks)
Tried aggregator 2 times.
MIP Presolve eliminated 940 rows and 838 columns.
MIP Presolve modified 2246 coefficients.
Aggregator did 34 substitutions.
Reduced MIP has 24142 rows, 20549 columns, and 68740 nonzeros.
Reduced MIP has 8059 binaries, 0 generals, 0 SOSs, and 0 indicators.
Presolve time = 0.09 sec. (70.55 ticks)
Probing time = 0.02 sec. (16.31 ticks)
Clique table members: 6354.
MIP emphasis: balance optimality and feasibility.
MIP search method: dynamic search.
Parallel mode: opportunistic, using up to 24 threads.
Root relaxation solution time = 0.52 sec. (554.54 ticks)

        Nodes                                         Cuts/
   Node  Left     Objective  IInf  Best Integer    Best Bound    ItCnt     Gap

      0     0     3409.8694   692                   3409.8694     6794         
*     0+    0                         3409.8694     3409.8694             0.00%
      0     0        cutoff           3409.8694     3409.8694     7111    0.00%
Elapsed time = 4.05 sec. (2684.92 ticks, tree = 0.01 MB, solutions = 1)

Clique cuts applied:  9
Implied bound cuts applied:  20
Flow cuts applied:  494
Mixed integer rounding cuts applied:  37
Gomory fractional cuts applied:  16

Root node processing (before b&c):
  Real time             =    4.06 sec. (2686.78 ticks)
Parallel b&c, 24 threads:
  Real time             =    0.00 sec. (0.00 ticks)
  Sync time (average)   =    0.00 sec.
  Wait time (average)   =    0.00 sec.
                          ------------
Total (root+branch&cut) =    4.06 sec. (2686.78 ticks)

Solution pool: 1 solution saved.

MIP - Integer optimal solution:  Objective =  3.4098693840e+03
Solution time =    4.06 sec.  Iterations = 7111  Nodes = 0
Deterministic time = 2686.94 ticks  (661.32 ticks/sec)

CPLEX> Incumbent solution written to file 'C:\Users\Luke\Desktop\test919\logs\tmp80n8xpf7.cplex.sol'.
CPLEX> Exporting results... 
